# Hz S DB R 50.0000
100.0000e+03 -40.4976      +97.19342 -27.0685e-03   +1.39670 -18.6240e-03   +0.03458 -43.7824     +168.38779
173.5673e+06 -48.9990      +53.36438 -23.5409e-03   -4.83925 -7.64418e-03   -4.83684 -50.4723      +61.47140
347.0347e+06 -44.8847      +47.88863 -26.1948e-03   -9.58732 -22.9110e-03   -9.59834 -46.3308      +55.24519
520.5020e+06 -43.2489      +38.52498 -36.2235e-03  -14.32768 -32.7222e-03  -14.32759 -44.0883      +47.27216
693.9694e+06 -41.4157      +31.91243 -41.8167e-03  -19.05533 -39.5252e-03  -19.04315 -42.6459      +41.65100
867.4367e+06 -41.7546      +30.98886 -47.5266e-03  -23.76772 -45.3852e-03  -23.76190 -41.6674      +36.45612
1.040904e+09 -41.2363      +22.74515 -55.1169e-03  -28.49155 -50.7117e-03  -28.47396 -40.7466      +33.56579
1.214371e+09 -39.9518      +23.77391 -58.0103e-03  -33.19218 -54.2823e-03  -33.17926 -40.1130      +29.70474
1.387839e+09 -39.7813      +12.84935 -61.9727e-03  -37.90253 -57.3285e-03  -37.89195 -39.5130      +26.11096
1.561306e+09 -40.2254       +8.72662 -66.1939e-03  -42.60581 -59.7784e-03  -42.60081 -38.9522      +22.69176
1.734773e+09 -40.4764       +6.94085 -68.5349e-03  -47.30872 -63.3755e-03  -47.30479 -38.4989      +19.13507
1.908241e+09 -40.2851       +3.52963 -72.2425e-03  -52.02115 -65.9042e-03  -52.01883 -38.1417      +16.19804
2.081708e+09 -39.9252       -1.18377 -72.7883e-03  -56.72825 -68.1172e-03  -56.72247 -37.6615      +13.26448
2.255176e+09 -39.8850       -5.61199 -75.7685e-03  -61.43147 -70.4157e-03  -61.43071 -37.3947      +10.15469
2.428643e+09 -39.9355      -11.10712 -77.3630e-03  -66.13982 -73.0654e-03  -66.13738 -37.0758       +6.17202
2.602110e+09 -39.7661      -17.32713 -78.5380e-03  -70.84445 -75.8967e-03  -70.84971 -36.7739       +2.97111
2.775578e+09 -39.7452      -23.87642 -80.7347e-03  -75.54740 -77.2843e-03  -75.55168 -36.5586       -0.52761
2.949045e+09 -39.5570      -29.51864 -80.5028e-03  -80.25903 -79.0570e-03  -80.25873 -36.3180       -4.33278
3.122512e+09 -39.7123      -35.26840 -82.7423e-03  -84.96758 -81.3053e-03  -84.97128 -36.1001       -8.48068
3.295980e+09 -39.8562      -42.70107 -84.2320e-03  -89.68238 -83.5420e-03  -89.67950 -35.8985      -12.85422
3.469447e+09 -39.6225      -45.65997 -87.0341e-03  -94.39185 -83.1507e-03  -94.39005 -35.8841      -17.41380
3.642914e+09 -39.7055      -50.43567 -87.9368e-03  -99.10624 -86.0108e-03  -99.10338 -35.8175      -22.05126
3.816382e+09 -39.1547      -56.40333 -88.7964e-03 -103.81323 -90.1383e-03 -103.81263 -35.8389      -26.39488
3.989849e+09 -38.3768      -61.49792 -90.7033e-03 -108.51846 -88.7231e-03 -108.52595 -35.9189      -31.05204
4.163316e+09 -37.7020      -65.41603 -92.7430e-03 -113.14507 -89.2859e-03 -113.24249 -36.0148      -35.19070
4.336784e+09 -37.6005      -68.11086 -95.3601e-03 -117.84349 -90.3487e-03 -118.02114 -36.1864      -39.44142
4.510251e+09 -38.0321      -70.95471 -97.1351e-03 -122.66278 -95.0886e-03 -122.72906 -36.5467      -43.72642
4.683718e+09 -38.3193      -70.73554 -91.7811e-03 -127.36257 -97.1333e-03 -127.38548 -36.7545      -48.48849
4.857186e+09 -38.4142      -66.55961 -95.8011e-03 -132.08370 -100.067e-03 -132.08170 -37.1116      -51.94703
5.030653e+09 -38.6570      -73.62740 -97.5456e-03 -136.76497 -99.7558e-03 -136.78381 -37.5706      -55.19300
5.204120e+09 -38.9717      -73.32828 -98.0244e-03 -141.45073 -98.0961e-03 -141.48392 -38.0710      -58.65613
5.377588e+09 -38.5514      -76.98344 -99.1965e-03 -146.16198 -103.811e-03 -146.21595 -38.6867      -61.85400
5.551055e+09 -38.0558      -76.47662 -100.618e-03 -150.90343 -104.450e-03 -150.90123 -39.4699      -64.80642
5.724522e+09 -38.9435      -77.42250 -99.2297e-03 -155.61687 -103.462e-03 -155.65212 -40.1511      -66.06088
5.897990e+09 -39.0482      -75.76939 -102.261e-03 -160.33521 -100.194e-03 -160.34630 -41.0626      -68.94577
6.071457e+09 -38.6775      -70.80732 -105.319e-03 -165.03664 -100.898e-03 -165.04508 -41.9930      -65.61471
6.244924e+09 -39.5612      -68.56789 -105.495e-03 -169.77781 -102.713e-03 -169.74811 -42.6887      -61.28485
6.418392e+09 -40.2565      -67.84086 -107.312e-03 -174.50690 -106.497e-03 -174.43638 -43.5053      -56.41155
6.591859e+09 -40.0216      -66.82132 -109.761e-03 -179.17102 -104.425e-03 -179.17786 -43.6634      -51.65810
6.765327e+09 -39.6410      -72.54386 -109.609e-03 +176.12777 -104.764e-03 +176.09657 -43.4008      -43.89401
6.938794e+09 -39.3399      -75.63092 -111.378e-03 +171.40409 -107.691e-03 +171.38516 -42.4060      -39.30096
7.112261e+09 -40.1072      -73.71879 -112.499e-03 +166.70590 -108.970e-03 +166.65437 -41.5032      -37.06445
7.285729e+09 -41.1078      -74.98430 -108.610e-03 +161.96950 -112.796e-03 +161.95632 -40.3656      -33.95348
7.459196e+09 -40.3509      -68.79045 -112.851e-03 +157.28952 -114.731e-03 +157.21836 -39.5249      -37.65825
7.632663e+09 -40.8221      -63.16736 -111.139e-03 +152.57162 -111.254e-03 +152.51234 -39.0237      -42.20917
7.806131e+09 -40.2612      -62.41310 -115.330e-03 +147.89707 -110.517e-03 +147.76955 -38.2369      -46.91253
7.979598e+09 -40.5902      -59.44935 -110.156e-03 +143.18773 -111.911e-03 +143.05514 -37.9148      -50.05161
8.153065e+09 -40.8953      -59.84680 -105.744e-03 +138.42694 -110.713e-03 +138.35681 -37.3014      -54.92050
8.326533e+09 -41.0966      -58.67242 -107.349e-03 +133.69527 -110.854e-03 +133.67257 -36.9604      -59.40454
8.500000e+09 -40.0433      -58.98588 -104.847e-03 +128.98418 -112.464e-03 +128.93986 -36.5879      -64.93382
